60
1 0 1
2 1 1
3 0 1
3 1 1
3 2 1
4 0 1
4 3 1
5 0 1
5 4 1
6 0 1
6 2 1
6 3 1
6 4 1
6 5 1
7 0 1
7 1 1
7 2 1
7 5 1
7 6 1
8 2 1
8 3 1
8 4 1
8 5 1
8 6 1
8 7 1
9 0 1
9 1 1
9 8 1
10 1 1
10 3 1
10 5 1
10 9 1
11 0 1
11 3 1
11 6 1
11 8 1
11 9 1
11 10 1
12 3 1
12 4 1
12 5 1
12 9 1
12 10 1
12 11 1
13 1 1
13 2 1
13 3 1
13 4 1
13 6 1
13 7 1
13 8 1
13 11 1
14 0 1
14 1 1
14 2 1
14 3 1
14 4 1
14 6 1
14 7 1
14 9 1
15 0 1
15 1 1
15 3 1
15 4 1
15 6 1
15 9 1
15 11 1
15 13 1
15 14 1
16 0 1
16 3 1
16 6 1
16 7 1
16 8 1
16 10 1
16 12 1
16 13 1
16 14 1
17 3 1
17 10 1
17 12 1
17 13 1
17 15 1
18 0 1
18 2 1
18 3 1
18 4 1
18 10 1
18 12 1
18 15 1
19 1 1
19 3 1
19 4 1
19 5 1
19 6 1
19 8 1
19 9 1
19 10 1
19 11 1
19 15 1
20 0 1
20 1 1
20 2 1
20 3 1
20 8 1
20 9 1
20 11 1
20 12 1
20 13 1
20 14 1
20 16 1
20 17 1
21 1 1
21 4 1
21 5 1
21 7 1
21 10 1
21 11 1
21 12 1
21 14 1
21 18 1
22 9 1
22 10 1
22 12 1
22 16 1
23 0 1
23 3 1
23 6 1
23 8 1
23 9 1
23 11 1
23 12 1
23 13 1
23 15 1
23 16 1
23 17 1
23 19 1
23 20 1
23 21 1
24 0 1
24 3 1
24 4 1
24 5 1
24 6 1
24 13 1
24 16 1
24 17 1
24 18 1
24 19 1
24 22 1
24 23 1
25 2 1
25 3 1
25 5 1
25 7 1
25 8 1
25 9 1
25 10 1
25 12 1
25 13 1
25 17 1
25 19 1
25 20 1
25 21 1
25 23 1
26 0 1
26 1 1
26 2 1
26 3 1
26 4 1
26 6 1
26 7 1
26 9 1
26 11 1
26 12 1
26 13 1
26 14 1
26 15 1
26 16 1
26 17 1
26 18 1
26 19 1
26 20 1
26 21 1
26 23 1
27 0 1
27 1 1
27 3 1
27 4 1
27 5 1
27 7 1
27 8 1
27 9 1
27 10 1
27 13 1
27 15 1
27 17 1
27 18 1
27 21 1
27 24 1
27 25 1
27 26 1
28 0 1
28 2 1
28 3 1
28 4 1
28 5 1
28 6 1
28 7 1
28 9 1
28 11 1
28 13 1
28 14 1
28 15 1
28 16 1
28 18 1
28 19 1
28 20 1
28 22 1
28 24 1
28 25 1
29 1 1
29 2 1
29 3 1
29 5 1
29 6 1
29 12 1
29 14 1
29 15 1
29 16 1
29 18 1
29 20 1
29 21 1
29 23 1
29 26 1
30 1 1
30 11 1
30 12 1
30 14 1
30 16 1
30 19 1
30 24 1
31 4 1
31 5 1
31 6 1
31 10 1
31 13 1
31 16 1
31 17 1
31 18 1
31 20 1
31 21 1
31 22 1
31 23 1
31 24 1
31 26 1
31 27 1
31 28 1
31 29 1
32 0 1
32 4 1
32 7 1
32 8 1
32 9 1
32 10 1
32 11 1
32 12 1
32 15 1
32 16 1
32 21 1
32 24 1
32 27 1
32 29 1
32 31 1
33 1 1
33 2 1
33 3 1
33 5 1
33 7 1
33 9 1
33 11 1
33 13 1
33 16 1
33 17 1
33 23 1
33 24 1
33 26 1
33 27 1
33 30 1
34 2 1
34 3 1
34 12 1
34 17 1
34 19 1
34 20 1
34 21 1
34 24 1
34 28 1
34 33 1
35 0 1
35 1 1
35 3 1
35 5 1
35 6 1
35 7 1
35 8 1
35 11 1
35 12 1
35 13 1
35 14 1
35 15 1
35 16 1
35 19 1
35 21 1
35 22 1
35 29 1
35 30 1
35 32 1
35 33 1
35 34 1
36 1 1
36 2 1
36 3 1
36 5 1
36 6 1
36 8 1
36 10 1
36 14 1
36 15 1
36 17 1
36 18 1
36 19 1
36 21 1
36 23 1
36 24 1
36 27 1
36 28 1
36 30 1
36 31 1
36 32 1
37 1 1
37 2 1
37 3 1
37 5 1
37 6 1
37 10 1
37 15 1
37 16 1
37 17 1
37 18 1
37 19 1
37 21 1
37 23 1
37 24 1
37 27 1
37 28 1
37 29 1
37 30 1
37 31 1
37 34 1
37 35 1
38 0 1
38 1 1
38 4 1
38 5 1
38 6 1
38 9 1
38 10 1
38 11 1
38 12 1
38 20 1
38 24 1
38 25 1
38 27 1
38 29 1
38 30 1
38 31 1
38 36 1
38 37 1
39 0 1
39 2 1
39 5 1
39 6 1
39 10 1
39 11 1
39 14 1
39 17 1
39 19 1
39 23 1
39 26 1
39 27 1
39 31 1
39 34 1
39 35 1
39 36 1
40 4 1
40 7 1
40 8 1
40 10 1
40 13 1
40 16 1
40 17 1
40 19 1
40 22 1
40 23 1
40 25 1
40 29 1
40 30 1
40 34 1
40 35 1
40 37 1
40 39 1
41 1 1
41 5 1
41 7 1
41 9 1
41 10 1
41 12 1
41 13 1
41 15 1
41 16 1
41 18 1
41 22 1
41 23 1
41 24 1
41 25 1
41 26 1
41 27 1
41 30 1
41 31 1
41 32 1
41 34 1
41 35 1
41 36 1
41 37 1
41 39 1
41 40 1
42 0 1
42 2 1
42 3 1
42 4 1
42 6 1
42 10 1
42 15 1
42 17 1
42 19 1
42 21 1
42 22 1
42 23 1
42 24 1
42 26 1
42 27 1
42 28 1
42 30 1
42 36 1
42 37 1
42 40 1
42 41 1
43 2 1
43 3 1
43 5 1
43 6 1
43 7 1
43 8 1
43 12 1
43 13 1
43 16 1
43 18 1
43 21 1
43 24 1
43 25 1
43 26 1
43 28 1
43 29 1
43 31 1
43 32 1
43 33 1
43 34 1
43 36 1
43 37 1
43 41 1
44 1 1
44 3 1
44 5 1
44 6 1
44 7 1
44 8 1
44 9 1
44 10 1
44 11 1
44 12 1
44 13 1
44 14 1
44 16 1
44 18 1
44 19 1
44 21 1
44 22 1
44 24 1
44 25 1
44 26 1
44 29 1
44 30 1
44 35 1
44 36 1
44 37 1
44 42 1
45 0 1
45 1 1
45 4 1
45 5 1
45 6 1
45 8 1
45 9 1
45 12 1
45 15 1
45 16 1
45 17 1
45 18 1
45 19 1
45 20 1
45 21 1
45 22 1
45 23 1
45 24 1
45 26 1
45 27 1
45 30 1
45 31 1
45 32 1
45 33 1
45 35 1
45 37 1
45 41 1
45 42 1
45 43 1
46 0 1
46 1 1
46 2 1
46 4 1
46 6 1
46 7 1
46 13 1
46 15 1
46 16 1
46 17 1
46 19 1
46 20 1
46 21 1
46 22 1
46 23 1
46 24 1
46 25 1
46 26 1
46 28 1
46 29 1
46 30 1
46 31 1
46 33 1
46 34 1
46 35 1
46 36 1
46 37 1
46 38 1
46 43 1
46 44 1
47 0 1
47 4 1
47 7 1
47 8 1
47 9 1
47 11 1
47 12 1
47 14 1
47 15 1
47 16 1
47 17 1
47 21 1
47 22 1
47 23 1
47 30 1
47 33 1
47 34 1
47 35 1
47 36 1
47 39 1
47 40 1
47 41 1
47 42 1
47 46 1
48 2 1
48 5 1
48 6 1
48 7 1
48 9 1
48 13 1
48 14 1
48 16 1
48 18 1
48 19 1
48 20 1
48 24 1
48 25 1
48 26 1
48 28 1
48 30 1
48 33 1
48 36 1
48 41 1
48 44 1
48 46 1
49 0 1
49 2 1
49 4 1
49 8 1
49 9 1
49 13 1
49 17 1
49 18 1
49 19 1
49 21 1
49 23 1
49 24 1
49 25 1
49 28 1
49 32 1
49 33 1
49 36 1
49 37 1
49 38 1
49 42 1
49 43 1
49 44 1
49 45 1
49 46 1
49 48 1
50 0 1
50 3 1
50 4 1
50 8 1
50 11 1
50 12 1
50 14 1
50 16 1
50 19 1
50 23 1
50 25 1
50 28 1
50 32 1
50 35 1
50 37 1
50 38 1
50 41 1
50 45 1
50 46 1
50 47 1
50 48 1
50 49 1
51 0 1
51 2 1
51 7 1
51 11 1
51 12 1
51 13 1
51 14 1
51 16 1
51 26 1
51 30 1
51 31 1
51 32 1
51 34 1
51 35 1
51 36 1
51 37 1
51 40 1
51 48 1
51 49 1
52 0 1
52 1 1
52 5 1
52 10 1
52 14 1
52 17 1
52 20 1
52 23 1
52 27 1
52 29 1
52 30 1
52 31 1
52 33 1
52 34 1
52 35 1
52 36 1
52 37 1
52 39 1
52 40 1
52 43 1
52 44 1
52 46 1
52 47 1
52 50 1
52 51 1
53 3 1
53 4 1
53 5 1
53 6 1
53 8 1
53 9 1
53 10 1
53 17 1
53 19 1
53 20 1
53 22 1
53 24 1
53 28 1
53 30 1
53 31 1
53 32 1
53 33 1
53 35 1
53 40 1
53 41 1
53 47 1
53 49 1
54 0 1
54 2 1
54 5 1
54 9 1
54 10 1
54 16 1
54 18 1
54 19 1
54 20 1
54 27 1
54 29 1
54 30 1
54 32 1
54 33 1
54 34 1
54 37 1
54 38 1
54 39 1
54 41 1
54 43 1
54 44 1
54 46 1
54 47 1
54 51 1
55 0 1
55 4 1
55 7 1
55 8 1
55 9 1
55 11 1
55 12 1
55 16 1
55 17 1
55 18 1
55 19 1
55 20 1
55 24 1
55 26 1
55 27 1
55 28 1
55 29 1
55 30 1
55 32 1
55 33 1
55 34 1
55 35 1
55 36 1
55 39 1
55 40 1
55 41 1
55 43 1
55 48 1
55 49 1
56 0 1
56 4 1
56 6 1
56 7 1
56 9 1
56 10 1
56 12 1
56 14 1
56 20 1
56 22 1
56 25 1
56 26 1
56 27 1
56 31 1
56 32 1
56 33 1
56 34 1
56 36 1
56 38 1
56 39 1
56 42 1
56 43 1
56 45 1
56 47 1
56 48 1
56 50 1
56 51 1
56 52 1
56 53 1
57 0 1
57 2 1
57 3 1
57 5 1
57 6 1
57 8 1
57 11 1
57 13 1
57 16 1
57 17 1
57 18 1
57 19 1
57 21 1
57 22 1
57 23 1
57 24 1
57 25 1
57 31 1
57 32 1
57 35 1
57 36 1
57 38 1
57 40 1
57 44 1
57 46 1
57 48 1
57 50 1
57 52 1
57 53 1
57 55 1
57 56 1
58 0 1
58 2 1
58 3 1
58 7 1
58 8 1
58 12 1
58 13 1
58 16 1
58 18 1
58 20 1
58 21 1
58 25 1
58 27 1
58 30 1
58 31 1
58 33 1
58 34 1
58 36 1
58 37 1
58 39 1
58 40 1
58 41 1
58 42 1
58 44 1
58 50 1
58 51 1
58 52 1
58 53 1
58 54 1
59 0 1
59 1 1
59 6 1
59 8 1
59 9 1
59 10 1
59 11 1
59 13 1
59 15 1
59 18 1
59 21 1
59 23 1
59 26 1
59 28 1
59 30 1
59 31 1
59 34 1
59 37 1
59 41 1
59 43 1
59 45 1
59 48 1
59 51 1
59 52 1
59 54 1
59 56 1
